(declare-fun temp41158_1 () (_ BitVec 64))
(declare-fun temp41158_2 () (_ BitVec 64))
(declare-fun var77740 () (_ BitVec 64))
(declare-fun k!0 () Bool)
(declare-fun ARGNAME_input_1_NAMEEND_DIM () (_ BitVec 64))
(declare-fun ARGNAME_data_format_NAMEEND_STRFMT () (_ BitVec 64))
(declare-fun temp41158_3 () (_ BitVec 64))
(declare-fun ARGNAME_input_2_NAMEEND_DIM () (_ BitVec 64))
(declare-fun var77770 () (_ BitVec 64))
(declare-fun temp41158_4 () (_ BitVec 64))
(declare-fun temp41158_5 () (_ BitVec 64))
(declare-fun ARGNAME_input_1_NAMEEND_DIMSIZE
             ()
             (Array (_ BitVec 64) (_ BitVec 64)))
(declare-fun temp41158_6 () (_ BitVec 64))
(declare-fun temp41158_7 () (_ BitVec 64))
(declare-fun temp41158_8 () (_ BitVec 64))
(declare-fun temp41158_9 () (_ BitVec 64))
(declare-fun temp41158_10 () (_ BitVec 64))
(declare-fun temp41158_11 () (_ BitVec 64))
(declare-fun temp41158_12 () (_ BitVec 64))
(declare-fun temp41158_13 () (_ BitVec 64))
(declare-fun temp41158_14 () (_ BitVec 64))
(declare-fun temp41158_15 () (_ BitVec 64))
(declare-fun temp41158_16 () (_ BitVec 64))
(declare-fun temp41158_17 () (_ BitVec 64))
(declare-fun temp41158_18 () (_ BitVec 64))
(declare-fun var77799 () (_ BitVec 64))
(declare-fun temp41158_19 () (_ BitVec 64))
(declare-fun ARGNAME_input_2_NAMEEND_DIMSIZE
             ()
             (Array (_ BitVec 64) (_ BitVec 64)))
(declare-fun temp41158_20 () (_ BitVec 64))
(declare-fun temp41158_21 () (_ BitVec 64))
(declare-fun temp41158_22 () (_ BitVec 64))
(declare-fun temp41158_23 () (_ BitVec 64))
(declare-fun temp41158_24 () (_ BitVec 64))
(declare-fun temp41158_25 () (_ BitVec 64))
(declare-fun temp41158_26 () (_ BitVec 64))
(declare-fun temp41158_27 () (_ BitVec 64))
(declare-fun temp41158_28 () (_ BitVec 64))
(declare-fun temp41158_29 () (_ BitVec 64))
(declare-fun temp41158_30 () (_ BitVec 64))
(declare-fun temp41158_31 () (_ BitVec 64))
(declare-fun temp41158_32 () (_ BitVec 64))
(declare-fun var77832 () (_ BitVec 64))
(declare-fun temp41158_33 () (_ BitVec 64))
(declare-fun temp41158_34 () (_ BitVec 64))
(declare-fun var77833 () (_ BitVec 64))
(declare-fun var77834 () (_ BitVec 64))
(declare-fun temp41158_35 () (_ BitVec 64))
(declare-fun temp41158_36 () (_ BitVec 64))
(declare-fun var275510 () (_ BitVec 64))
(declare-fun temp41158_37 () (_ BitVec 64))
(declare-fun var275528 () (_ BitVec 64))
(declare-fun temp41158_38 () (_ BitVec 64))
(declare-fun temp41158_40 () (_ BitVec 64))
(declare-fun temp41158_39 () (_ BitVec 64))
(declare-fun temp41158_42 () (_ BitVec 64))
(declare-fun temp41158_41 () (_ BitVec 64))
(declare-fun temp41158_43 () (_ BitVec 64))
(declare-fun var406582 () (_ BitVec 64))
(declare-fun temp41158_44 () (_ BitVec 64))
(declare-fun var406600 () (_ BitVec 64))
(declare-fun temp41158_45 () (_ BitVec 64))
(declare-fun temp41158_46 () (_ BitVec 64))
(declare-fun var537654 () (_ BitVec 64))
(declare-fun temp41158_47 () (_ BitVec 64))
(declare-fun var537672 () (_ BitVec 64))
(declare-fun temp41158_48 () (_ BitVec 64))
(declare-fun temp41158_50 () (_ BitVec 64))
(declare-fun temp41158_49 () (_ BitVec 64))
(declare-fun temp41158_52 () (_ BitVec 64))
(declare-fun temp41158_51 () (_ BitVec 64))
(declare-fun temp41158_54 () (_ BitVec 64))
(declare-fun temp41158_53 () (_ BitVec 64))
(declare-fun temp41158_56 () (_ BitVec 64))
(declare-fun temp41158_55 () (_ BitVec 64))
(declare-fun temp41158_58 () (_ BitVec 64))
(declare-fun temp41158_57 () (_ BitVec 64))
(declare-fun temp41158_59 () (_ BitVec 64))
(declare-fun var795723 () (_ BitVec 64))
(declare-fun var795702 () (_ BitVec 64))
(declare-fun var664608 () (_ BitVec 64))
(declare-fun temp41158_60 () (_ BitVec 64))
(declare-fun temp41158_62 () (_ BitVec 64))
(declare-fun temp41158_61 () (_ BitVec 64))
(declare-fun temp41158_64 () (_ BitVec 64))
(declare-fun temp41158_63 () (_ BitVec 64))
(declare-fun temp41158_66 () (_ BitVec 64))
(declare-fun temp41158_65 () (_ BitVec 64))
(declare-fun temp41158_67 () (_ BitVec 64))
(declare-fun var992306 () (_ BitVec 64))
(declare-fun temp41158_68 () (_ BitVec 64))
(declare-fun var992307 () (_ BitVec 64))
(declare-fun var992308 () (_ BitVec 64))
(declare-fun var992304 () (_ BitVec 64))
(declare-fun var599004 () (_ BitVec 64))
(declare-fun temp41158_69 () (_ BitVec 64))
(declare-fun var1057842 () (_ BitVec 64))
(declare-fun temp41158_70 () (_ BitVec 64))
(declare-fun var1057843 () (_ BitVec 64))
(declare-fun var1057844 () (_ BitVec 64))
(declare-fun var1057840 () (_ BitVec 64))
(declare-fun var599011 () (_ BitVec 64))
(declare-fun temp41158_71 () (_ BitVec 64))
(declare-fun var1123378 () (_ BitVec 64))
(declare-fun temp41158_72 () (_ BitVec 64))
(declare-fun var1123379 () (_ BitVec 64))
(declare-fun var1123380 () (_ BitVec 64))
(declare-fun var1123376 () (_ BitVec 64))
(declare-fun var599016 () (_ BitVec 64))
(declare-fun var78095 () (_ BitVec 64))
(declare-fun temp41158_73 () (_ BitVec 64))
(declare-fun temp41158_74 () (_ BitVec 64))
(declare-fun var78096 () (_ BitVec 64))
(declare-fun var78179 () (_ BitVec 64))
(declare-fun temp41158_76 () (_ BitVec 64))
(declare-fun temp41158_75 () (_ BitVec 64))
(declare-fun temp41158_78 () (_ BitVec 64))
(declare-fun temp41158_77 () (_ BitVec 64))
(assert (or (= ARGNAME_data_format_NAMEEND_STRFMT #x0000000000000000)
    (= ARGNAME_data_format_NAMEEND_STRFMT #x0000000000000001)
    (= ARGNAME_data_format_NAMEEND_STRFMT #x0000000000000002)
    (= ARGNAME_data_format_NAMEEND_STRFMT #x0000000000000003)
    (= ARGNAME_data_format_NAMEEND_STRFMT #x0000000000000004)
    (= ARGNAME_data_format_NAMEEND_STRFMT #x0000000000000005)))
(assert (= temp41158_1 #x0000000000000005))
(assert (= var77740
   (ite (= ARGNAME_input_1_NAMEEND_DIM temp41158_1)
        #x0000000000000001
        #x0000000000000000)))
(assert (= temp41158_2 #x0000000000000001))
(assert (= var77740 temp41158_2))
(assert (= temp41158_3 #x0000000000000005))
(assert (= var77770
   (ite (= ARGNAME_input_2_NAMEEND_DIM temp41158_3)
        #x0000000000000001
        #x0000000000000000)))
(assert (= temp41158_4 #x0000000000000001))
(assert (= var77770 temp41158_4))
(assert (= temp41158_5 #x0000000000000000))
(assert (= temp41158_6 (select ARGNAME_input_1_NAMEEND_DIMSIZE temp41158_5)))
(assert (= temp41158_7 #x0000000000000001))
(assert (= temp41158_8 (select ARGNAME_input_1_NAMEEND_DIMSIZE temp41158_7)))
(assert (= temp41158_9 #x0000000000000002))
(assert (= temp41158_10 (select ARGNAME_input_1_NAMEEND_DIMSIZE temp41158_9)))
(assert (= temp41158_11 #x0000000000000003))
(assert (= temp41158_12 (select ARGNAME_input_1_NAMEEND_DIMSIZE temp41158_11)))
(assert (= temp41158_13 #x0000000000000004))
(assert (= temp41158_14 (select ARGNAME_input_1_NAMEEND_DIMSIZE temp41158_13)))
(assert (= temp41158_15 #x0000000000000005))
(assert (= temp41158_16 (select ARGNAME_input_1_NAMEEND_DIMSIZE temp41158_15)))
(assert (= temp41158_17 #x0000000000000003))
(assert (= temp41158_18 (select ARGNAME_input_1_NAMEEND_DIMSIZE temp41158_17)))
(assert (= var77799 temp41158_18))
(assert (= temp41158_19 #x0000000000000000))
(assert (= temp41158_20 (select ARGNAME_input_2_NAMEEND_DIMSIZE temp41158_19)))
(assert (= temp41158_21 #x0000000000000001))
(assert (= temp41158_22 (select ARGNAME_input_2_NAMEEND_DIMSIZE temp41158_21)))
(assert (= temp41158_23 #x0000000000000002))
(assert (= temp41158_24 (select ARGNAME_input_2_NAMEEND_DIMSIZE temp41158_23)))
(assert (= temp41158_25 #x0000000000000003))
(assert (= temp41158_26 (select ARGNAME_input_2_NAMEEND_DIMSIZE temp41158_25)))
(assert (= temp41158_27 #x0000000000000004))
(assert (= temp41158_28 (select ARGNAME_input_2_NAMEEND_DIMSIZE temp41158_27)))
(assert (= temp41158_29 #x0000000000000005))
(assert (= temp41158_30 (select ARGNAME_input_2_NAMEEND_DIMSIZE temp41158_29)))
(assert (= temp41158_31 #x0000000000000004))
(assert (= temp41158_32 (select ARGNAME_input_2_NAMEEND_DIMSIZE temp41158_31)))
(assert (= var77832 temp41158_32))
(assert (= temp41158_33 #x0000000000000004))
(assert (= temp41158_34 (select ARGNAME_input_1_NAMEEND_DIMSIZE temp41158_33)))
(assert (= var77833 temp41158_34))
(assert (= var77834 (ite (= var77832 var77833) #x0000000000000001 #x0000000000000000)))
(assert (= temp41158_35 #x0000000000000001))
(assert (= var77834 temp41158_35))
(assert (= temp41158_36 #x0000000000000001))
(assert (= var275510 temp41158_36))
(assert (= temp41158_37 #x0000000000000001))
(assert (= var275528
   (ite (bvslt var275510 temp41158_37) #x0000000000000001 #x0000000000000000)))
(assert (= temp41158_38 #x0000000000000000))
(assert (= var275528 temp41158_38))
(assert (= temp41158_40 #x0000000000000000))
(assert (= temp41158_39 temp41158_40))
(assert (= temp41158_42 #x0000000000000000))
(assert (= temp41158_41 temp41158_42))
(assert (= temp41158_43 #x0000000000000001))
(assert (= var406582 temp41158_43))
(assert (= temp41158_44 #x0000000000000001))
(assert (= var406600
   (ite (bvslt var406582 temp41158_44) #x0000000000000001 #x0000000000000000)))
(assert (= temp41158_45 #x0000000000000000))
(assert (= var406600 temp41158_45))
(assert (= temp41158_46 #x0000000000000001))
(assert (= var537654 temp41158_46))
(assert (= temp41158_47 #x0000000000000001))
(assert (= var537672
   (ite (bvslt var537654 temp41158_47) #x0000000000000001 #x0000000000000000)))
(assert (= temp41158_48 #x0000000000000000))
(assert (= var537672 temp41158_48))
(assert (= temp41158_50 #x0000000000000000))
(assert (= temp41158_49 temp41158_50))
(assert (= temp41158_52 #x0000000000000000))
(assert (= temp41158_51 temp41158_52))
(assert (= temp41158_54 #x00000000000000ff))
(assert (= temp41158_53 temp41158_54))
(assert (= temp41158_56 #x00000000000000ff))
(assert (= temp41158_55 temp41158_56))
(assert (= temp41158_58 #x00000000000000ff))
(assert (= temp41158_57 temp41158_58))
(assert (= temp41158_59 #x0000000000000000))
(assert (= var795723 temp41158_59))
(assert (= var795702 var795723))
(assert (= var664608 var795702))
(assert (= temp41158_60 #x0000000000000000))
(assert (= var664608 temp41158_60))
(assert (= temp41158_62 #x0000000000000000))
(assert (= temp41158_61 temp41158_62))
(assert (= temp41158_64 #x0000000000000000))
(assert (= temp41158_63 temp41158_64))
(assert (= temp41158_66 #x0000000000000000))
(assert (= temp41158_65 temp41158_66))
(assert (= temp41158_67 #x0000000000008000))
(assert (= var992306 temp41158_67))
(assert (= temp41158_68 #x0000000000000001))
(assert (= var992307
   (ite (bvslt temp41158_65 temp41158_68) #x0000000000000001 #x0000000000000000)))
(assert (= var992308 (ite (= var992307 #x0000000000000001) var992306 temp41158_65)))
(assert (= var992304 var992308))
(assert (= var599004 var992304))
(assert (= temp41158_69 #x0000000000040000))
(assert (= var1057842 temp41158_69))
(assert (= temp41158_70 #x0000000000000001))
(assert (= var1057843
   (ite (bvslt temp41158_63 temp41158_70) #x0000000000000001 #x0000000000000000)))
(assert (= var1057844 (ite (= var1057843 #x0000000000000001) var1057842 temp41158_63)))
(assert (= var1057840 var1057844))
(assert (= var599011 var1057840))
(assert (= temp41158_71 #x0000000000200000))
(assert (= var1123378 temp41158_71))
(assert (= temp41158_72 #x0000000000000001))
(assert (= var1123379
   (ite (bvslt temp41158_61 temp41158_72) #x0000000000000001 #x0000000000000000)))
(assert (= var1123380 (ite (= var1123379 #x0000000000000001) var1123378 temp41158_61)))
(assert (= var1123376 var1123380))
(assert (= var599016 var1123376))
(assert (= var78095 var599016))
(assert (= temp41158_73 #x0000000000000003))
(assert (= temp41158_74 #xffffffffffffffff))
(assert (= var78179 (bvadd var78096 temp41158_74)))
(assert (= temp41158_76 #x0000000000000001))
(assert (= temp41158_75 temp41158_76))
(assert (= temp41158_78 #x0000000000000001))
(assert (= temp41158_77 temp41158_78))
(model-add temp41158_1 () (_ BitVec 64) #x0000000000000005)
(model-add temp41158_2 () (_ BitVec 64) #x0000000000000001)
(model-add var77740 () (_ BitVec 64) #x0000000000000001)
(model-del k!0)
(model-add ARGNAME_input_1_NAMEEND_DIM
           ()
           (_ BitVec 64)
           (ite k!0 #x0000000000000005 (bvnot #x0000000000000005)))

